
        H = 300;
        W = 200;
        qtdeNiveis = 5;
        qtdeCategorias = 1;
        
        Wmin = [75];
        Wmax = [140];

        Ir = [{1}];
        h = [30];
        w = [11];
        d = [15];
        dMin = [5]; // descomentar se necessario 
        
        v = [[180,300,300,150,150]];
        
        
        l = [1];
        